(declare-const |tmp'| Int)
(declare-const i Int)
(declare-const havoc Int)
(declare-const tmp Int)
(declare-const term_to_project_onto0_integralized Int)
(declare-const term_to_project_onto_integralized Int)
(declare-const |i'| Int)
(assert (and (<= (- i) 0) (or (<= (+ havoc 1) 0) (<= (+ (- havoc) 1) 0))
               (<= (+ i -1000000) 0) (= (+ |tmp'| (- havoc)) 0)
               (= (+ |i'| (- i) -1) 0)
               (= (+ term_to_project_onto0_integralized (- (+ |i'| (- i)))) 0)
               (= (+ term_to_project_onto_integralized (- (+ |tmp'| (- tmp)))) 0)))
(check-sat)